SAT
-1 -100 -99 -98 -97 -96 95 -39 -49 36 -33 47 -86 -44 41 -23 80 -10 70 -71 75 20 84 -90 -87 -77 -35 -46 -34 12 -72 25 -7 -55 -56 -38 59 5 42 22 -4 83 -28 54 -91 45 -76 40 92 21 67 -11 60 -74 -48 -66 -93 3 -64 -69 -13 78 79 68 81 -24 50 -58 17 85 29 -89 32 62 -15 -19 18 -94 88 2 -43 53 37 6 61 14 31 65 -26 63 8 30 -52 9 -73 27 51 -57 -16 -82 0
